language ESSENCE' 1.0
letting values be [[6, 9, 2, 3, 7, 0, 5, 4, 0], [1, 0, 4, 5, 6, 8, 0, 7, 9], [0, 7, 8, 2, 0, 0, 1, 0, 0], [8, 4, 0, 0, 0, 0, 0, 0, 6], [2, 1, 0, 7, 0, 6, 0, 0, 4], [7, 5, 6, 8, 0, 0, 3, 1, 2], [0, 6, 5, 4, 1, 2, 0, 0, 0], [4, 0, 1, 9, 8, 0, 0, 0, 0], [0, 0, 7, 0, 0, 0, 4, 0, 1]]